;; sequence(s): A54337
;; terms: 1 28 448 5376 53760 473088 3784704 28114944 196804608 1312030720 8396996608 51908706304 311452237824 1820797698048 10404558274560 58265526337536 320460394856448 1734256254517248 9249366690758656
;; small program: loop((loop(2 * (2 + (2 + x)), 2, y) * x) div y, x, 1)
;; fast program: (((loop((loop((2 + x) * (((x * x) * x) - x), 1, 2 + x) div (2 * (2 * (2 + (2 + 2))))) * x, 1, 2 + x) * (1 + x)) div (2 + (2 * (2 + 2)))) * loop(x * x, 1, loop(x + x, x, 1))) div (1 + 2)
(set-logic UFNIA)
(define-fun divf ((a Int) (b Int)) Int (ite (< 0 b) (div a b) (div (- a) (- b))))
(declare-fun f1 (Int) Int)
(declare-fun g1 () Int)
(declare-fun h1 (Int Int) Int)
(declare-fun u1 (Int Int) Int)
(declare-fun v1 (Int Int) Int)
(declare-fun f0 (Int Int) Int)
(declare-fun g0 (Int) Int)
(declare-fun h0 () Int)
(declare-fun u0 (Int Int) Int)
(declare-fun v0 (Int) Int)
(declare-fun small (Int) Int)
(declare-fun f3 (Int) Int)
(declare-fun g3 () Int)
(declare-fun h3 (Int) Int)
(declare-fun u3 (Int Int) Int)
(declare-fun v3 (Int) Int)
(declare-fun f2 (Int) Int)
(declare-fun g2 () Int)
(declare-fun h2 (Int) Int)
(declare-fun u2 (Int Int) Int)
(declare-fun v2 (Int) Int)
(declare-fun f4 (Int) Int)
(declare-fun g4 () Int)
(declare-fun f5 (Int) Int)
(declare-fun g5 (Int) Int)
(declare-fun h5 () Int)
(declare-fun u5 (Int Int) Int)
(declare-fun v5 (Int) Int)
(declare-fun h4 (Int) Int)
(declare-fun u4 (Int Int) Int)
(declare-fun v4 (Int) Int)
(declare-fun fast (Int) Int)
(assert (forall ((x Int)) (= (f1 x) (* 2 (+ 2 (+ 2 x))))))
(assert (= g1 2))
(assert (forall ((x Int) (y Int)) (= (h1 x y) y)))
(assert (forall ((x Int) (y Int)) (= (u1 x y) (ite (<= x 0) y (f1 (u1 (- x 1) y))))))
(assert (forall ((x Int) (y Int)) (= (v1 x y) (u1 g1 (h1 x y)))))
(assert (forall ((x Int) (y Int)) (= (f0 x y) (divf (* (v1 x y) x) y))))
(assert (forall ((x Int)) (= (g0 x) x)))
(assert (= h0 1))
(assert (forall ((x Int) (y Int)) (= (u0 x y) (ite (<= x 0) y (f0 (u0 (- x 1) y) x)))))
(assert (forall ((x Int)) (= (v0 x) (u0 (g0 x) h0))))
(assert (forall ((x Int)) (= (small x) (v0 x))))
(assert (forall ((x Int)) (= (f3 x) (* (+ 2 x) (- (* (* x x) x) x)))))
(assert (= g3 1))
(assert (forall ((x Int)) (= (h3 x) (+ 2 x))))
(assert (forall ((x Int) (y Int)) (= (u3 x y) (ite (<= x 0) y (f3 (u3 (- x 1) y))))))
(assert (forall ((x Int)) (= (v3 x) (u3 g3 (h3 x)))))
(assert (forall ((x Int)) (= (f2 x) (* (divf (v3 x) (* 2 (* 2 (+ 2 (+ 2 2))))) x))))
(assert (= g2 1))
(assert (forall ((x Int)) (= (h2 x) (+ 2 x))))
(assert (forall ((x Int) (y Int)) (= (u2 x y) (ite (<= x 0) y (f2 (u2 (- x 1) y))))))
(assert (forall ((x Int)) (= (v2 x) (u2 g2 (h2 x)))))
(assert (forall ((x Int)) (= (f4 x) (* x x))))
(assert (= g4 1))
(assert (forall ((x Int)) (= (f5 x) (+ x x))))
(assert (forall ((x Int)) (= (g5 x) x)))
(assert (= h5 1))
(assert (forall ((x Int) (y Int)) (= (u5 x y) (ite (<= x 0) y (f5 (u5 (- x 1) y))))))
(assert (forall ((x Int)) (= (v5 x) (u5 (g5 x) h5))))
(assert (forall ((x Int)) (= (h4 x) (v5 x))))
(assert (forall ((x Int) (y Int)) (= (u4 x y) (ite (<= x 0) y (f4 (u4 (- x 1) y))))))
(assert (forall ((x Int)) (= (v4 x) (u4 g4 (h4 x)))))
(assert (forall ((x Int)) (= (fast x) (divf (* (divf (* (v2 x) (+ 1 x)) (+ 2 (* 2 (+ 2 2)))) (v4 x)) (+ 1 2)))))
(assert (exists ((c Int)) (and (>= c 0) (not (= (small c) (fast c))))))
(check-sat)
